32      4       
10      9       10      7       
0       0       0       0       0       3       2       3       4       
3       4       0       0       5       3       9       24      31      
8       6       7       0       1       2       5       8       
7       9       0       0       0       3       6       8       23      
1       0       2       0       0       3       7       12      17      
4       10      9       9       6       3       10      19      22      
6       8       8       0       0       1       13      
9       9       6       0       0       2       15      16      
3       0       6       10      1       3       11      13      16      
1       0       2       6       0       1       28      
7       0       0       0       6       1       20      
6       0       0       7       0       2       14      21      
4       6       0       7       3       1       27      
9       0       0       5       1       1       18      
5       5       0       0       0       2       17      20      
10      0       0       5       0       2       17      28      
6       10      3       2       0       1       25      
9       0       3       2       0       1       26      
9       0       0       10      0       1       30      
9       7       4       5       0       1       22      
2       1       0       0       0       1       22      
1       10      4       0       0       1       26      
3       0       0       0       7       1       29      
1       1       1       3       0       1       30      
7       4       0       9       0       1       29      
3       0       0       7       1       1       29      
4       4       0       1       0       1       28      
8       5       6       0       7       1       30      
1       4       7       10      0       1       32      
5       0       7       4       0       1       32      
5       4       0       0       7       1       32      
0       0       0       0       0       0       